300
150 150
1 119 226
2 119 837
3 118 142
4 118 834
5 118 470
6 118 697
7 118 814
8 117 785
9 117 276
10 117 14
11 116 883
12 116 573
13 116 816
14 116 772
15 116 730
16 116 668
17 115 852
18 114 561
19 114 849
20 114 772
21 114 534
22 113 851
23 113 280
24 113 894
25 113 396
26 112 280
27 112 530
28 111 813
29 111 701
30 111 137
31 111 405
32 111 253
33 110 76
34 110 250
35 110 537
36 110 37
37 110 820
38 110 548
39 110 12
40 109 472
41 108 897
42 108 957
43 108 566
44 108 945
45 107 237
46 107 140
47 107 440
48 106 585
49 106 592
50 106 236
51 106 848
52 106 164
53 106 581
54 105 844
55 105 31
56 103 361
57 103 917
58 103 55
59 102 677
60 102 233
61 101 764
62 101 75
63 99 711
64 99 384
65 98 976
66 98 798
67 97 963
68 96 931
69 96 128
70 96 895
71 96 509
72 95 38
73 94 950
74 94 596
75 93 85
76 93 173
77 93 484
78 92 642
79 92 709
80 92 247
81 91 73
82 90 724
83 90 787
84 90 865
85 90 891
86 90 801
87 90 413
88 90 323
89 89 838
90 88 813
91 88 831
92 87 724
93 87 590
94 86 631
95 86 7
96 86 867
97 86 465
98 86 11
99 86 755
100 86 713
101 85 571
102 85 551
103 85 113
104 84 614
105 83 301
106 83 722
107 83 778
108 82 365
109 82 559
110 82 476
111 82 942
112 82 409
113 82 954
114 82 852
115 81 443
116 81 175
117 81 828
118 81 306
119 80 472
120 80 871
121 79 291
122 79 423
123 79 656
124 78 51
125 77 391
126 76 255
127 76 639
128 75 782
129 75 969
130 74 216
131 74 257
132 73 331
133 73 201
134 73 805
135 73 454
136 72 598
137 71 803
138 71 928
139 71 596
140 71 772
141 71 1000
142 71 835
143 71 682
144 71 47
145 70 925
146 70 393
147 70 980
148 69 972
149 69 69
150 68 941
151 68 298
152 68 909
153 68 526
154 67 180
155 67 203
156 67 211
157 67 296
158 66 808
159 66 752
160 66 105
161 64 882
162 64 319
163 64 979
164 64 805
165 63 198
166 63 89
167 63 553
168 63 662
169 61 555
170 60 300
171 60 847
172 59 962
173 59 769
174 58 139
175 58 94
176 58 895
177 57 838
178 57 598
179 57 271
180 56 190
181 56 983
182 56 924
183 56 525
184 56 873
185 55 826
186 55 771
187 55 208
188 55 347
189 55 448
190 53 763
191 53 707
192 53 223
193 52 857
194 52 386
195 52 649
196 52 18
197 52 721
198 51 311
199 50 49
200 50 696
201 50 676
202 49 70
203 49 965
204 49 561
205 49 58
206 48 660
207 48 254
208 47 724
209 47 511
210 47 407
211 47 286
212 46 167
213 46 247
214 46 205
215 44 716
216 44 277
217 44 159
218 43 977
219 43 131
220 43 257
221 43 495
222 43 360
223 42 389
224 42 479
225 42 84
226 41 446
227 41 424
228 41 350
229 41 29
230 41 893
231 41 716
232 40 838
233 40 921
234 39 359
235 39 62
236 38 382
237 37 201
238 37 616
239 36 128
240 36 791
241 35 677
242 35 31
243 35 601
244 34 855
245 34 65
246 33 161
247 32 646
248 32 703
249 32 671
250 32 549
251 32 421
252 31 716
253 31 650
254 31 810
255 31 773
256 31 749
257 30 95
258 30 156
259 30 917
260 30 323
261 30 292
262 29 480
263 28 122
264 28 202
265 27 816
266 27 975
267 27 500
268 26 297
269 26 111
270 25 896
271 25 768
272 25 136
273 25 423
274 24 803
275 23 335
276 23 695
277 23 235
278 23 965
279 23 747
280 22 755
281 22 2
282 22 33
283 21 90
284 21 758
285 20 690
286 20 415
287 19 833
288 19 485
289 19 507
290 19 139
291 19 270
292 18 141
293 18 201
294 18 238
295 16 985
296 16 465
297 16 689
298 16 633
299 15 274
300 15 199
